p cnf 430 1488
-191 -97 0
-191 137 0
-191 12 0
-191 66 0
-191 67 0
191 97 -137 -12 -66 -67 0
-192 -90 0
-192 -38 0
-192 -76 0
-192 66 0
-192 42 0
192 90 38 76 -66 -42 0
-193 152 0
-193 77 0
-193 144 0
-193 126 0
-193 39 0
193 -152 -77 -144 -126 -39 0
-194 -41 0
-194 -134 0
-194 -72 0
-194 -113 0
-194 -44 0
194 41 134 72 113 44 0
-195 -40 0
-195 177 0
-195 171 0
-195 -71 0
-195 -184 0
195 40 -177 -171 71 184 0
191 192 193 194 195 0
-196 -95 0
-196 -76 0
-196 176 0
-196 69 0
-196 135 0
196 95 76 -176 -69 -135 0
-197 -139 0
-197 -8 0
-197 48 0
-197 -20 0
-197 148 0
197 139 8 -48 20 -148 0
-198 -106 0
-198 -54 0
-198 -58 0
-198 64 0
-198 -189 0
198 106 54 58 -64 189 0
-199 63 0
-199 -133 0
-199 138 0
-199 149 0
-199 4 0
199 -63 133 -138 -149 -4 0
-200 162 0
-200 -69 0
-200 61 0
-200 131 0
-200 95 0
200 -162 69 -61 -131 -95 0
196 197 198 199 200 0
-201 185 0
-201 6 0
-201 -86 0
-201 186 0
-201 80 0
201 -185 -6 86 -186 -80 0
-202 -124 0
-202 -99 0
-202 -143 0
-202 -111 0
-202 -153 0
202 124 99 143 111 153 0
-203 66 0
-203 -105 0
-203 -168 0
-203 97 0
-203 -21 0
203 -66 105 168 -97 21 0
-204 -78 0
-204 -30 0
-204 88 0
-204 -110 0
-204 157 0
204 78 30 -88 110 -157 0
-205 -13 0
-205 54 0
-205 -129 0
-205 -31 0
-205 -47 0
205 13 -54 129 31 47 0
201 202 203 204 205 0
-206 -133 0
-206 122 0
-206 32 0
-206 -190 0
-206 5 0
206 133 -122 -32 190 -5 0
-207 -89 0
-207 -71 0
-207 -124 0
-207 24 0
-207 95 0
207 89 71 124 -24 -95 0
-208 31 0
-208 -142 0
-208 -43 0
-208 -148 0
-208 119 0
208 -31 142 43 148 -119 0
-209 -7 0
-209 -45 0
-209 -9 0
-209 -142 0
-209 16 0
209 7 45 9 142 -16 0
-210 63 0
-210 99 0
-210 106 0
-210 -169 0
-210 -150 0
210 -63 -99 -106 169 150 0
206 207 208 209 210 0
-211 39 0
-211 -80 0
-211 -19 0
-211 127 0
-211 -59 0
211 -39 80 19 -127 59 0
-212 -70 0
-212 -8 0
-212 63 0
-212 -170 0
-212 -44 0
212 70 8 -63 170 44 0
-213 -114 0
-213 -42 0
-213 82 0
-213 -147 0
-213 110 0
213 114 42 -82 147 -110 0
-214 131 0
-214 95 0
-214 112 0
-214 -176 0
-214 101 0
214 -131 -95 -112 176 -101 0
-215 -125 0
-215 29 0
-215 188 0
-215 39 0
-215 178 0
215 125 -29 -188 -39 -178 0
211 212 213 214 215 0
-216 -142 0
-216 -106 0
-216 -126 0
-216 -98 0
-216 180 0
216 142 106 126 98 -180 0
-217 109 0
-217 -64 0
-217 179 0
-217 -35 0
-217 -129 0
217 -109 64 -179 35 129 0
-218 2 0
-218 56 0
-218 60 0
-218 -24 0
-218 -69 0
218 -2 -56 -60 24 69 0
-219 12 0
-219 14 0
-219 4 0
-219 25 0
-219 -143 0
219 -12 -14 -4 -25 143 0
-220 -33 0
-220 -3 0
-220 146 0
-220 132 0
-220 -139 0
220 33 3 -146 -132 139 0
216 217 218 219 220 0
-221 163 0
-221 -20 0
-221 140 0
-221 -9 0
-221 88 0
221 -163 20 -140 9 -88 0
-222 171 0
-222 6 0
-222 -24 0
-222 -42 0
-222 -31 0
222 -171 -6 24 42 31 0
-223 -50 0
-223 -33 0
-223 -32 0
-223 183 0
-223 22 0
223 50 33 32 -183 -22 0
-224 -102 0
-224 -75 0
-224 -137 0
-224 80 0
-224 -155 0
224 102 75 137 -80 155 0
-225 158 0
-225 150 0
-225 124 0
-225 95 0
-225 44 0
225 -158 -150 -124 -95 -44 0
221 222 223 224 225 0
-226 -90 0
-226 -129 0
-226 -100 0
-226 19 0
-226 -175 0
226 90 129 100 -19 175 0
-227 -54 0
-227 30 0
-227 151 0
-227 -170 0
-227 113 0
227 54 -30 -151 170 -113 0
-228 -64 0
-228 -182 0
-228 143 0
-228 167 0
-228 46 0
228 64 182 -143 -167 -46 0
-229 128 0
-229 -14 0
-229 94 0
-229 -8 0
-229 -25 0
229 -128 14 -94 8 25 0
-230 62 0
-230 -177 0
-230 29 0
-230 -27 0
-230 -162 0
230 -62 177 -29 27 162 0
226 227 228 229 230 0
-231 156 0
-231 71 0
-231 140 0
-231 -104 0
-231 -100 0
231 -156 -71 -140 104 100 0
-232 187 0
-232 106 0
-232 -26 0
-232 -32 0
-232 17 0
232 -187 -106 26 32 -17 0
-233 164 0
-233 153 0
-233 8 0
-233 -57 0
-233 -90 0
233 -164 -153 -8 57 90 0
-234 -90 0
-234 -3 0
-234 -184 0
-234 -12 0
-234 55 0
234 90 3 184 12 -55 0
-235 -52 0
-235 -64 0
-235 110 0
-235 177 0
-235 168 0
235 52 64 -110 -177 -168 0
231 232 233 234 235 0
-236 7 0
-236 -186 0
-236 -120 0
-236 24 0
-236 156 0
236 -7 186 120 -24 -156 0
-237 184 0
-237 105 0
-237 108 0
-237 -190 0
-237 -24 0
237 -184 -105 -108 190 24 0
-238 -28 0
-238 185 0
-238 145 0
-238 178 0
-238 179 0
238 28 -185 -145 -178 -179 0
-239 -138 0
-239 25 0
-239 -52 0
-239 -117 0
-239 -142 0
239 138 -25 52 117 142 0
-240 -67 0
-240 160 0
-240 -105 0
-240 -14 0
-240 -18 0
240 67 -160 105 14 18 0
236 237 238 239 240 0
-241 47 0
-241 55 0
-241 -92 0
-241 -139 0
-241 -70 0
241 -47 -55 92 139 70 0
-242 120 0
-242 94 0
-242 9 0
-242 66 0
-242 92 0
242 -120 -94 -9 -66 -92 0
-243 -128 0
-243 57 0
-243 -158 0
-243 43 0
-243 164 0
243 128 -57 158 -43 -164 0
-244 107 0
-244 -75 0
-244 77 0
-244 -12 0
-244 136 0
244 -107 75 -77 12 -136 0
-245 145 0
-245 -133 0
-245 151 0
-245 144 0
-245 167 0
245 -145 133 -151 -144 -167 0
241 242 243 244 245 0
-246 136 0
-246 6 0
-246 -93 0
-246 -186 0
-246 181 0
246 -136 -6 93 186 -181 0
-247 181 0
-247 -45 0
-247 150 0
-247 -141 0
-247 -92 0
247 -181 45 -150 141 92 0
-248 -38 0
-248 164 0
-248 -17 0
-248 70 0
-248 46 0
248 38 -164 17 -70 -46 0
-249 -150 0
-249 107 0
-249 -43 0
-249 3 0
-249 -190 0
249 150 -107 43 -3 190 0
-250 -135 0
-250 8 0
-250 -170 0
-250 -54 0
-250 156 0
250 135 -8 170 54 -156 0
246 247 248 249 250 0
-251 -25 0
-251 146 0
-251 158 0
-251 -183 0
-251 6 0
251 25 -146 -158 183 -6 0
-252 72 0
-252 -78 0
-252 -179 0
-252 -182 0
-252 -122 0
252 -72 78 179 182 122 0
-253 99 0
-253 76 0
-253 -23 0
-253 -15 0
-253 28 0
253 -99 -76 23 15 -28 0
-254 -102 0
-254 -158 0
-254 145 0
-254 105 0
-254 57 0
254 102 158 -145 -105 -57 0
-255 -27 0
-255 68 0
-255 -35 0
-255 -28 0
-255 -176 0
255 27 -68 35 28 176 0
251 252 253 254 255 0
-256 73 0
-256 114 0
-256 46 0
-256 -135 0
-256 -130 0
256 -73 -114 -46 135 130 0
-257 8 0
-257 -59 0
-257 181 0
-257 -155 0
-257 34 0
257 -8 59 -181 155 -34 0
-258 34 0
-258 64 0
-258 77 0
-258 -138 0
-258 -144 0
258 -34 -64 -77 138 144 0
-259 160 0
-259 69 0
-259 -51 0
-259 72 0
-259 1 0
259 -160 -69 51 -72 -1 0
-260 101 0
-260 140 0
-260 -117 0
-260 77 0
-260 -173 0
260 -101 -140 117 -77 173 0
256 257 258 259 260 0
-261 -190 0
-261 -92 0
-261 -151 0
-261 72 0
-261 180 0
261 190 92 151 -72 -180 0
-262 -4 0
-262 -179 0
-262 11 0
-262 142 0
-262 -165 0
262 4 179 -11 -142 165 0
-263 141 0
-263 -44 0
-263 -136 0
-263 142 0
-263 162 0
263 -141 44 136 -142 -162 0
-264 150 0
-264 -74 0
-264 164 0
-264 -117 0
-264 141 0
264 -150 74 -164 117 -141 0
-265 87 0
-265 31 0
-265 139 0
-265 75 0
-265 162 0
265 -87 -31 -139 -75 -162 0
261 262 263 264 265 0
-266 165 0
-266 160 0
-266 183 0
-266 -69 0
-266 -100 0
266 -165 -160 -183 69 100 0
-267 -151 0
-267 -83 0
-267 108 0
-267 -132 0
-267 91 0
267 151 83 -108 132 -91 0
-268 168 0
-268 122 0
-268 -84 0
-268 -115 0
-268 133 0
268 -168 -122 84 115 -133 0
-269 -95 0
-269 80 0
-269 71 0
-269 -66 0
-269 79 0
269 95 -80 -71 66 -79 0
-270 146 0
-270 -79 0
-270 8 0
-270 -119 0
-270 -19 0
270 -146 79 -8 119 19 0
266 267 268 269 270 0
-271 44 0
-271 189 0
-271 14 0
-271 121 0
-271 -24 0
271 -44 -189 -14 -121 24 0
-272 -94 0
-272 -36 0
-272 -135 0
-272 -2 0
-272 136 0
272 94 36 135 2 -136 0
-273 -185 0
-273 -105 0
-273 -2 0
-273 159 0
-273 180 0
273 185 105 2 -159 -180 0
-274 -164 0
-274 39 0
-274 -143 0
-274 87 0
-274 142 0
274 164 -39 143 -87 -142 0
-275 -17 0
-275 -181 0
-275 -25 0
-275 -15 0
-275 82 0
275 17 181 25 15 -82 0
271 272 273 274 275 0
-276 93 0
-276 -26 0
-276 100 0
-276 145 0
-276 123 0
276 -93 26 -100 -145 -123 0
-277 -43 0
-277 45 0
-277 29 0
-277 -168 0
-277 -79 0
277 43 -45 -29 168 79 0
-278 137 0
-278 -140 0
-278 171 0
-278 -38 0
-278 -36 0
278 -137 140 -171 38 36 0
-279 111 0
-279 162 0
-279 11 0
-279 176 0
-279 164 0
279 -111 -162 -11 -176 -164 0
-280 -149 0
-280 137 0
-280 155 0
-280 -156 0
-280 -178 0
280 149 -137 -155 156 178 0
276 277 278 279 280 0
-281 -119 0
-281 -91 0
-281 156 0
-281 65 0
-281 -124 0
281 119 91 -156 -65 124 0
-282 5 0
-282 42 0
-282 -48 0
-282 35 0
-282 -160 0
282 -5 -42 48 -35 160 0
-283 38 0
-283 93 0
-283 73 0
-283 163 0
-283 172 0
283 -38 -93 -73 -163 -172 0
-284 135 0
-284 -128 0
-284 -51 0
-284 190 0
-284 89 0
284 -135 128 51 -190 -89 0
-285 152 0
-285 26 0
-285 140 0
-285 73 0
-285 51 0
285 -152 -26 -140 -73 -51 0
281 282 283 284 285 0
-286 122 0
-286 -136 0
-286 98 0
-286 -100 0
-286 -11 0
286 -122 136 -98 100 11 0
-287 -162 0
-287 -83 0
-287 -43 0
-287 18 0
-287 -29 0
287 162 83 43 -18 29 0
-288 -15 0
-288 -45 0
-288 -142 0
-288 -66 0
-288 -110 0
288 15 45 142 66 110 0
-289 -175 0
-289 134 0
-289 -176 0
-289 -51 0
-289 -19 0
289 175 -134 176 51 19 0
-290 -62 0
-290 -182 0
-290 -46 0
-290 179 0
-290 16 0
290 62 182 46 -179 -16 0
286 287 288 289 290 0
-291 31 0
-291 57 0
-291 -175 0
-291 -41 0
-291 -42 0
291 -31 -57 175 41 42 0
-292 -51 0
-292 183 0
-292 25 0
-292 -170 0
-292 -50 0
292 51 -183 -25 170 50 0
-293 143 0
-293 -117 0
-293 -102 0
-293 40 0
-293 -120 0
293 -143 117 102 -40 120 0
-294 -25 0
-294 58 0
-294 22 0
-294 14 0
-294 -138 0
294 25 -58 -22 -14 138 0
-295 -38 0
-295 154 0
-295 3 0
-295 109 0
-295 67 0
295 38 -154 -3 -109 -67 0
291 292 293 294 295 0
-296 155 0
-296 -45 0
-296 17 0
-296 81 0
-296 -149 0
296 -155 45 -17 -81 149 0
-297 -72 0
-297 99 0
-297 27 0
-297 173 0
-297 -168 0
297 72 -99 -27 -173 168 0
-298 109 0
-298 -19 0
-298 -131 0
-298 73 0
-298 -79 0
298 -109 19 131 -73 79 0
-299 -170 0
-299 144 0
-299 3 0
-299 -163 0
-299 29 0
299 170 -144 -3 163 -29 0
-300 -65 0
-300 -176 0
-300 -64 0
-300 163 0
-300 162 0
300 65 176 64 -163 -162 0
296 297 298 299 300 0
-301 77 0
-301 -93 0
-301 -132 0
-301 8 0
-301 -23 0
301 -77 93 132 -8 23 0
-302 -98 0
-302 -45 0
-302 26 0
-302 -183 0
-302 171 0
302 98 45 -26 183 -171 0
-303 -96 0
-303 -120 0
-303 89 0
-303 167 0
-303 10 0
303 96 120 -89 -167 -10 0
-304 66 0
-304 -177 0
-304 81 0
-304 -61 0
-304 135 0
304 -66 177 -81 61 -135 0
-305 60 0
-305 77 0
-305 -18 0
-305 -8 0
-305 135 0
305 -60 -77 18 8 -135 0
301 302 303 304 305 0
-306 19 0
-306 -53 0
-306 146 0
-306 163 0
-306 -122 0
306 -19 53 -146 -163 122 0
-307 -80 0
-307 158 0
-307 16 0
-307 94 0
-307 -26 0
307 80 -158 -16 -94 26 0
-308 101 0
-308 -45 0
-308 -174 0
-308 -23 0
-308 112 0
308 -101 45 174 23 -112 0
-309 -64 0
-309 -110 0
-309 -159 0
-309 -47 0
-309 -117 0
309 64 110 159 47 117 0
-310 175 0
-310 -100 0
-310 -118 0
-310 -116 0
-310 158 0
310 -175 100 118 116 -158 0
306 307 308 309 310 0
-311 188 0
-311 -6 0
-311 -100 0
-311 -67 0
-311 -83 0
311 -188 6 100 67 83 0
-312 -159 0
-312 -7 0
-312 94 0
-312 -82 0
-312 186 0
312 159 7 -94 82 -186 0
-313 46 0
-313 -115 0
-313 180 0
-313 -185 0
-313 -131 0
313 -46 115 -180 185 131 0
-314 -25 0
-314 -13 0
-314 21 0
-314 71 0
-314 107 0
314 25 13 -21 -71 -107 0
-315 -41 0
-315 -51 0
-315 31 0
-315 -133 0
-315 -54 0
315 41 51 -31 133 54 0
311 312 313 314 315 0
-316 132 0
-316 -126 0
-316 176 0
-316 71 0
-316 -85 0
316 -132 126 -176 -71 85 0
-317 70 0
-317 -98 0
-317 91 0
-317 88 0
-317 -131 0
317 -70 98 -91 -88 131 0
-318 15 0
-318 177 0
-318 92 0
-318 -128 0
-318 -168 0
318 -15 -177 -92 128 168 0
-319 -90 0
-319 31 0
-319 119 0
-319 73 0
-319 46 0
319 90 -31 -119 -73 -46 0
-320 -70 0
-320 71 0
-320 130 0
-320 31 0
-320 -183 0
320 70 -71 -130 -31 183 0
316 317 318 319 320 0
-321 70 0
-321 126 0
-321 -45 0
-321 -119 0
-321 -117 0
321 -70 -126 45 119 117 0
-322 -48 0
-322 -140 0
-322 -134 0
-322 -11 0
-322 34 0
322 48 140 134 11 -34 0
-323 -118 0
-323 -115 0
-323 1 0
-323 46 0
-323 -61 0
323 118 115 -1 -46 61 0
-324 -33 0
-324 -93 0
-324 139 0
-324 -21 0
-324 -37 0
324 33 93 -139 21 37 0
-325 -119 0
-325 51 0
-325 57 0
-325 43 0
-325 121 0
325 119 -51 -57 -43 -121 0
321 322 323 324 325 0
-326 36 0
-326 -20 0
-326 -81 0
-326 -39 0
-326 -2 0
326 -36 20 81 39 2 0
-327 -92 0
-327 -75 0
-327 120 0
-327 119 0
-327 -182 0
327 92 75 -120 -119 182 0
-328 51 0
-328 116 0
-328 -152 0
-328 -30 0
-328 50 0
328 -51 -116 152 30 -50 0
-329 176 0
-329 143 0
-329 -59 0
-329 132 0
-329 -134 0
329 -176 -143 59 -132 134 0
-330 148 0
-330 -103 0
-330 -48 0
-330 -97 0
-330 -143 0
330 -148 103 48 97 143 0
326 327 328 329 330 0
-331 56 0
-331 180 0
-331 128 0
-331 -141 0
-331 159 0
331 -56 -180 -128 141 -159 0
-332 135 0
-332 -4 0
-332 -7 0
-332 70 0
-332 152 0
332 -135 4 7 -70 -152 0
-333 102 0
-333 133 0
-333 55 0
-333 -6 0
-333 53 0
333 -102 -133 -55 6 -53 0
-334 -70 0
-334 38 0
-334 66 0
-334 78 0
-334 -186 0
334 70 -38 -66 -78 186 0
-335 -58 0
-335 172 0
-335 15 0
-335 -88 0
-335 -26 0
335 58 -172 -15 88 26 0
331 332 333 334 335 0
-336 7 0
-336 -130 0
-336 11 0
-336 -173 0
-336 56 0
336 -7 130 -11 173 -56 0
-337 183 0
-337 -150 0
-337 42 0
-337 114 0
-337 -38 0
337 -183 150 -42 -114 38 0
-338 -69 0
-338 23 0
-338 -16 0
-338 56 0
-338 -34 0
338 69 -23 16 -56 34 0
-339 84 0
-339 -38 0
-339 -102 0
-339 -30 0
-339 -184 0
339 -84 38 102 30 184 0
-340 -40 0
-340 -173 0
-340 -127 0
-340 -23 0
-340 -75 0
340 40 173 127 23 75 0
336 337 338 339 340 0
-341 -11 0
-341 172 0
-341 137 0
-341 -103 0
-341 22 0
341 11 -172 -137 103 -22 0
-342 173 0
-342 -24 0
-342 67 0
-342 168 0
-342 -69 0
342 -173 24 -67 -168 69 0
-343 186 0
-343 53 0
-343 -69 0
-343 41 0
-343 -1 0
343 -186 -53 69 -41 1 0
-344 -177 0
-344 25 0
-344 -189 0
-344 77 0
-344 -18 0
344 177 -25 189 -77 18 0
-345 -97 0
-345 26 0
-345 55 0
-345 -80 0
-345 156 0
345 97 -26 -55 80 -156 0
341 342 343 344 345 0
-346 -43 0
-346 152 0
-346 -60 0
-346 -187 0
-346 124 0
346 43 -152 60 187 -124 0
-347 4 0
-347 5 0
-347 143 0
-347 -89 0
-347 178 0
347 -4 -5 -143 89 -178 0
-348 -75 0
-348 -94 0
-348 182 0
-348 -47 0
-348 -67 0
348 75 94 -182 47 67 0
-349 -189 0
-349 -181 0
-349 183 0
-349 62 0
-349 -94 0
349 189 181 -183 -62 94 0
-350 7 0
-350 -32 0
-350 104 0
-350 22 0
-350 -31 0
350 -7 32 -104 -22 31 0
346 347 348 349 350 0
-351 -33 0
-351 -174 0
-351 -76 0
-351 111 0
-351 -9 0
351 33 174 76 -111 9 0
-352 135 0
-352 -40 0
-352 -183 0
-352 180 0
-352 128 0
352 -135 40 183 -180 -128 0
-353 61 0
-353 49 0
-353 -105 0
-353 107 0
-353 50 0
353 -61 -49 105 -107 -50 0
-354 79 0
-354 -7 0
-354 -4 0
-354 -10 0
-354 94 0
354 -79 7 4 10 -94 0
-355 -137 0
-355 -40 0
-355 73 0
-355 49 0
-355 -139 0
355 137 40 -73 -49 139 0
351 352 353 354 355 0
-356 58 0
-356 185 0
-356 -99 0
-356 -17 0
-356 108 0
356 -58 -185 99 17 -108 0
-357 -177 0
-357 -80 0
-357 153 0
-357 20 0
-357 115 0
357 177 80 -153 -20 -115 0
-358 59 0
-358 14 0
-358 -137 0
-358 143 0
-358 -87 0
358 -59 -14 137 -143 87 0
-359 156 0
-359 -6 0
-359 -94 0
-359 -61 0
-359 -100 0
359 -156 6 94 61 100 0
-360 19 0
-360 -183 0
-360 51 0
-360 -76 0
-360 -64 0
360 -19 183 -51 76 64 0
356 357 358 359 360 0
-361 -120 0
-361 3 0
-361 7 0
-361 -179 0
-361 -83 0
361 120 -3 -7 179 83 0
-362 -11 0
-362 -56 0
-362 -25 0
-362 -163 0
-362 -126 0
362 11 56 25 163 126 0
-363 -106 0
-363 184 0
-363 26 0
-363 11 0
-363 -39 0
363 106 -184 -26 -11 39 0
-364 -144 0
-364 -145 0
-364 71 0
-364 171 0
-364 -179 0
364 144 145 -71 -171 179 0
-365 -54 0
-365 112 0
-365 71 0
-365 -10 0
-365 11 0
365 54 -112 -71 10 -11 0
361 362 363 364 365 0
-366 -187 0
-366 189 0
-366 -18 0
-366 16 0
-366 -171 0
366 187 -189 18 -16 171 0
-367 -18 0
-367 -140 0
-367 -108 0
-367 44 0
-367 -118 0
367 18 140 108 -44 118 0
-368 107 0
-368 125 0
-368 149 0
-368 160 0
-368 -158 0
368 -107 -125 -149 -160 158 0
-369 59 0
-369 124 0
-369 137 0
-369 55 0
-369 -97 0
369 -59 -124 -137 -55 97 0
-370 -112 0
-370 106 0
-370 92 0
-370 7 0
-370 75 0
370 112 -106 -92 -7 -75 0
366 367 368 369 370 0
-371 27 0
-371 45 0
-371 -96 0
-371 -188 0
-371 59 0
371 -27 -45 96 188 -59 0
-372 82 0
-372 -165 0
-372 170 0
-372 143 0
-372 159 0
372 -82 165 -170 -143 -159 0
-373 -36 0
-373 141 0
-373 -152 0
-373 -165 0
-373 147 0
373 36 -141 152 165 -147 0
-374 20 0
-374 104 0
-374 -25 0
-374 -85 0
-374 -26 0
374 -20 -104 25 85 26 0
-375 120 0
-375 -68 0
-375 143 0
-375 74 0
-375 131 0
375 -120 68 -143 -74 -131 0
371 372 373 374 375 0
-376 -157 0
-376 -54 0
-376 -11 0
-376 122 0
-376 53 0
376 157 54 11 -122 -53 0
-377 -48 0
-377 67 0
-377 -129 0
-377 -29 0
-377 8 0
377 48 -67 129 29 -8 0
-378 52 0
-378 172 0
-378 -102 0
-378 89 0
-378 39 0
378 -52 -172 102 -89 -39 0
-379 23 0
-379 108 0
-379 -113 0
-379 21 0
-379 33 0
379 -23 -108 113 -21 -33 0
-380 -56 0
-380 151 0
-380 27 0
-380 -99 0
-380 -28 0
380 56 -151 -27 99 28 0
376 377 378 379 380 0
-381 -109 0
-381 -21 0
-381 -159 0
-381 -31 0
-381 39 0
381 109 21 159 31 -39 0
-382 139 0
-382 -75 0
-382 -62 0
-382 -141 0
-382 -64 0
382 -139 75 62 141 64 0
-383 48 0
-383 -84 0
-383 145 0
-383 113 0
-383 152 0
383 -48 84 -145 -113 -152 0
-384 28 0
-384 -185 0
-384 -26 0
-384 15 0
-384 48 0
384 -28 185 26 -15 -48 0
-385 33 0
-385 -25 0
-385 137 0
-385 26 0
-385 -86 0
385 -33 25 -137 -26 86 0
381 382 383 384 385 0
-386 -74 0
-386 -181 0
-386 112 0
-386 150 0
-386 -124 0
386 74 181 -112 -150 124 0
-387 64 0
-387 150 0
-387 187 0
-387 -29 0
-387 -114 0
387 -64 -150 -187 29 114 0
-388 52 0
-388 -21 0
-388 -116 0
-388 15 0
-388 8 0
388 -52 21 116 -15 -8 0
-389 63 0
-389 21 0
-389 -145 0
-389 -176 0
-389 -189 0
389 -63 -21 145 176 189 0
-390 160 0
-390 -28 0
-390 120 0
-390 -88 0
-390 -16 0
390 -160 28 -120 88 16 0
386 387 388 389 390 0
-391 -4 0
-391 32 0
-391 -68 0
-391 124 0
-391 56 0
391 4 -32 68 -124 -56 0
-392 56 0
-392 39 0
-392 -143 0
-392 178 0
-392 50 0
392 -56 -39 143 -178 -50 0
-393 179 0
-393 85 0
-393 -136 0
-393 133 0
-393 -170 0
393 -179 -85 136 -133 170 0
-394 -27 0
-394 -8 0
-394 -98 0
-394 -19 0
-394 -63 0
394 27 8 98 19 63 0
-395 -8 0
-395 173 0
-395 77 0
-395 97 0
-395 -40 0
395 8 -173 -77 -97 40 0
391 392 393 394 395 0
-396 -121 0
-396 171 0
-396 -113 0
-396 29 0
-396 -130 0
396 121 -171 113 -29 130 0
-397 -182 0
-397 -51 0
-397 -36 0
-397 108 0
-397 -83 0
397 182 51 36 -108 83 0
-398 -86 0
-398 -10 0
-398 -52 0
-398 -6 0
-398 154 0
398 86 10 52 6 -154 0
-399 39 0
-399 184 0
-399 -103 0
-399 117 0
-399 -83 0
399 -39 -184 103 -117 83 0
-400 -35 0
-400 -146 0
-400 -139 0
-400 9 0
-400 181 0
400 35 146 139 -9 -181 0
396 397 398 399 400 0
-401 -159 0
-401 -116 0
-401 -190 0
-401 -22 0
-401 -109 0
401 159 116 190 22 109 0
-402 -101 0
-402 152 0
-402 -15 0
-402 12 0
-402 -24 0
402 101 -152 15 -12 24 0
-403 25 0
-403 -40 0
-403 128 0
-403 -163 0
-403 183 0
403 -25 40 -128 163 -183 0
-404 161 0
-404 38 0
-404 -23 0
-404 -153 0
-404 147 0
404 -161 -38 23 153 -147 0
-405 53 0
-405 -3 0
-405 45 0
-405 -120 0
-405 -131 0
405 -53 3 -45 120 131 0
401 402 403 404 405 0
-406 -62 0
-406 -9 0
-406 32 0
-406 -115 0
-406 129 0
406 62 9 -32 115 -129 0
-407 -130 0
-407 -161 0
-407 -75 0
-407 171 0
-407 -53 0
407 130 161 75 -171 53 0
-408 9 0
-408 -126 0
-408 65 0
-408 11 0
-408 -120 0
408 -9 126 -65 -11 120 0
-409 31 0
-409 -50 0
-409 -21 0
-409 -98 0
-409 33 0
409 -31 50 21 98 -33 0
-410 -6 0
-410 68 0
-410 -130 0
-410 -90 0
-410 -125 0
410 6 -68 130 90 125 0
406 407 408 409 410 0
-411 161 0
-411 -77 0
-411 -141 0
-411 23 0
-411 -152 0
411 -161 77 141 -23 152 0
-412 108 0
-412 -105 0
-412 -114 0
-412 178 0
-412 189 0
412 -108 105 114 -178 -189 0
-413 -34 0
-413 23 0
-413 -123 0
-413 -26 0
-413 -126 0
413 34 -23 123 26 126 0
-414 113 0
-414 -66 0
-414 -174 0
-414 -122 0
-414 166 0
414 -113 66 174 122 -166 0
-415 42 0
-415 63 0
-415 104 0
-415 82 0
-415 138 0
415 -42 -63 -104 -82 -138 0
411 412 413 414 415 0
-416 -11 0
-416 -173 0
-416 6 0
-416 113 0
-416 -96 0
416 11 173 -6 -113 96 0
-417 -137 0
-417 167 0
-417 88 0
-417 62 0
-417 -32 0
417 137 -167 -88 -62 32 0
-418 -8 0
-418 102 0
-418 141 0
-418 -112 0
-418 27 0
418 8 -102 -141 112 -27 0
-419 -166 0
-419 60 0
-419 -67 0
-419 -139 0
-419 10 0
419 166 -60 67 139 -10 0
-420 98 0
-420 2 0
-420 -29 0
-420 -81 0
-420 -109 0
420 -98 -2 29 81 109 0
416 417 418 419 420 0
-421 175 0
-421 85 0
-421 -140 0
-421 -58 0
-421 -1 0
421 -175 -85 140 58 1 0
-422 -121 0
-422 -60 0
-422 41 0
-422 19 0
-422 4 0
422 121 60 -41 -19 -4 0
-423 -10 0
-423 177 0
-423 77 0
-423 51 0
-423 115 0
423 10 -177 -77 -51 -115 0
-424 154 0
-424 -148 0
-424 -2 0
-424 -107 0
-424 106 0
424 -154 148 2 107 -106 0
-425 183 0
-425 -75 0
-425 50 0
-425 25 0
-425 88 0
425 -183 75 -50 -25 -88 0
421 422 423 424 425 0
-426 -70 0
-426 -8 0
-426 109 0
-426 177 0
-426 16 0
426 70 8 -109 -177 -16 0
-427 92 0
-427 158 0
-427 187 0
-427 3 0
-427 79 0
427 -92 -158 -187 -3 -79 0
-428 139 0
-428 176 0
-428 39 0
-428 -180 0
-428 164 0
428 -139 -176 -39 180 -164 0
-429 79 0
-429 -160 0
-429 -24 0
-429 1 0
-429 56 0
429 -79 160 24 -1 -56 0
-430 9 0
-430 -106 0
-430 32 0
-430 -17 0
-430 -143 0
430 -9 106 -32 17 143 0
426 427 428 429 430 0
